SAT
22 67 74 99 -9 -92 16 32 28 -96 34 -7 40 41 -29 -90 -31 -84 -79 -55 -48 -61 -44 -6 -68 38 23 1 51 -3 -5 -66 -13 63 4 35 -97 -69 -98 58 -15 -60 -71 80 95 75 -62 45 -14 81 -93 -46 57 25 -49 52 10 19 8 -53 27 -2 30 -73 -37 88 -26 -20 87 12 100 36 -70 21 -76 -77 54 11 -17 59 -86 91 -78 -83 64 -89 18 -42 -65 -33 43 -24 85 -47 -50 56 -72 -39 -82 94 0
